TYPE : Vertex Cover
DIMENSION: 37
EDGE_DATA_SECTION:
0 3
0 10
0 13
0 16
0 18
0 23
0 24
0 29
1 2
1 5
1 6
1 8
1 11
1 12
1 14
1 16
1 34
1 36
2 9
2 13
2 16
2 19
2 21
2 29
2 31
2 33
2 35
3 5
3 7
3 11
3 12
3 17
3 25
3 34
3 35
4 10
4 12
4 14
4 20
4 34
4 35
5 10
5 16
5 17
5 20
5 21
5 23
5 27
5 30
5 32
5 33
6 8
6 21
6 24
6 26
6 28
6 33
7 13
7 21
7 24
7 33
7 35
8 12
8 14
8 18
8 23
8 25
8 26
8 28
8 35
9 11
9 12
9 16
9 21
9 23
9 27
9 32
10 17
10 20
10 24
10 28
10 32
10 36
11 15
11 18
11 20
11 22
11 24
11 34
11 35
12 15
12 18
12 19
12 23
12 28
12 29
12 33
13 17
13 22
13 24
13 25
14 16
14 24
14 32
14 34
14 35
15 16
15 17
15 18
15 19
15 24
15 28
15 30
16 21
16 28
16 30
16 31
16 34
17 20
17 23
17 26
17 35
18 19
18 20
18 26
18 27
19 20
19 25
19 26
19 28
19 29
19 32
20 21
20 27
20 28
20 30
20 36
21 25
21 26
21 29
21 31
21 32
22 24
22 27
22 28
22 29
22 31
22 36
23 27
24 27
24 28
24 31
25 29
25 32
26 27
26 33
26 34
27 31
28 36
29 32
30 35
31 32
31 33
33 34
33 36
-1
VERTEX_DEGREE:
8.0 10.0 10.0 9.0 6.0 12.0 7.0 6.0 10.0 8.0 9.0 10.0 12.0 7.0 8.0 9.0 12.0 9.0 9.0 10.0 12.0 12.0 8.0 7.0 12.0 7.0 9.0 9.0 11.0 8.0 5.0 8.0 9.0 9.0 8.0 9.0 6.0
VERTEX_COVER:
1 3 4 5 8 9 10 13 15 16 18 19 20 21 22 23 24 26 28 29 31 32 33 34 35
EOF
